480 160
10 54 77 123 222 302 321 353
11 55 78 124 223 303 322 354
12 56 79 125 224 304 323 355
13 57 80 126 193 305 324 356
14 58 81 127 194 306 325 357
15 59 82 128 195 307 326 358
16 60 83 97 196 308 327 359
17 61 84 98 197 309 328 360
18 62 85 99 198 310 329 361
19 63 86 100 199 311 330 362
20 64 87 101 200 312 331 363
21 33 88 102 201 313 332 364
22 34 89 103 202 314 333 365
23 35 90 104 203 315 334 366
24 36 91 105 204 316 335 367
25 37 92 106 205 317 336 368
26 38 93 107 206 318 337 369
27 39 94 108 207 319 338 370
28 40 95 109 208 320 339 371
29 41 96 110 209 289 340 372
30 42 65 111 210 290 341 373
31 43 66 112 211 291 342 374
32 44 67 113 212 292 343 375
1 45 68 114 213 293 344 376
2 46 69 115 214 294 345 377
3 47 70 116 215 295 346 378
4 48 71 117 216 296 347 379
5 49 72 118 217 297 348 380
6 50 73 119 218 298 349 381
7 51 74 120 219 299 350 382
8 52 75 121 220 300 351 383
9 53 76 122 221 301 352 384
8 103 158 190 195 253 257 317 353 385
9 104 159 191 196 254 258 318 354 386
10 105 160 192 197 255 259 319 355 387
11 106 129 161 198 256 260 320 356 388
12 107 130 162 199 225 261 289 357 389
13 108 131 163 200 226 262 290 358 390
14 109 132 164 201 227 263 291 359 391
15 110 133 165 202 228 264 292 360 392
16 111 134 166 203 229 265 293 361 393
17 112 135 167 204 230 266 294 362 394
18 113 136 168 205 231 267 295 363 395
19 114 137 169 206 232 268 296 364 396
20 115 138 170 207 233 269 297 365 397
21 116 139 171 208 234 270 298 366 398
22 117 140 172 209 235 271 299 367 399
23 118 141 173 210 236 272 300 368 400
24 119 142 174 211 237 273 301 369 401
25 120 143 175 212 238 274 302 370 402
26 121 144 176 213 239 275 303 371 403
27 122 145 177 214 240 276 304 372 404
28 123 146 178 215 241 277 305 373 405
29 124 147 179 216 242 278 306 374 406
30 125 148 180 217 243 279 307 375 407
31 126 149 181 218 244 280 308 376 408
32 127 150 182 219 245 281 309 377 409
1 128 151 183 220 246 282 310 378 410
2 97 152 184 221 247 283 311 379 411
3 98 153 185 222 248 284 312 380 412
4 99 154 186 223 249 285 313 381 413
5 100 155 187 224 250 286 314 382 414
6 101 156 188 193 251 287 315 383 415
7 102 157 189 194 252 288 316 384 416
18 51 109 149 273 322 385 417
19 52 110 150 274 323 386 418
20 53 111 151 275 324 387 419
21 54 112 152 276 325 388 420
22 55 113 153 277 326 389 421
23 56 114 154 278 327 390 422
24 57 115 155 279 328 391 423
25 58 116 156 280 329 392 424
26 59 117 157 281 330 393 425
27 60 118 158 282 331 394 426
28 61 119 159 283 332 395 427
29 62 120 160 284 333 396 428
30 63 121 129 285 334 397 429
31 64 122 130 286 335 398 430
32 33 123 131 287 336 399 431
1 34 124 132 288 337 400 432
2 35 125 133 257 338 401 433
3 36 126 134 258 339 402 434
4 37 127 135 259 340 403 435
5 38 128 136 260 341 404 436
6 39 97 137 261 342 405 437
7 40 98 138 262 343 406 438
8 41 99 139 263 344 407 439
9 42 100 140 264 345 408 440
10 43 101 141 265 346 409 441
11 44 102 142 266 347 410 442
12 45 103 143 267 348 411 443
13 46 104 144 268 349 412 444
14 47 105 145 269 350 413 445
15 48 106 146 270 351 414 446
16 49 107 147 271 352 415 447
17 50 108 148 272 321 416 448
41 91 159 169 210 247 275 289 321 417
42 92 160 170 211 248 276 290 322 418
43 93 129 171 212 249 277 291 323 419
44 94 130 172 213 250 278 292 324 420
45 95 131 173 214 251 279 293 325 421
46 96 132 174 215 252 280 294 326 422
47 65 133 175 216 253 281 295 327 423
48 66 134 176 217 254 282 296 328 424
49 67 135 177 218 255 283 297 329 425
50 68 136 178 219 256 284 298 330 426
51 69 137 179 220 225 285 299 331 427
52 70 138 180 221 226 286 300 332 428
53 71 139 181 222 227 287 301 333 429
54 72 140 182 223 228 288 302 334 430
55 73 141 183 224 229 257 303 335 431
56 74 142 184 193 230 258 304 336 432
57 75 143 185 194 231 259 305 337 433
58 76 144 186 195 232 260 306 338 434
59 77 145 187 196 233 261 307 339 435
60 78 146 188 197 234 262 308 340 436
61 79 147 189 198 235 263 309 341 437
62 80 148 190 199 236 264 310 342 438
63 81 149 191 200 237 265 311 343 439
64 82 150 192 201 238 266 312 344 440
33 83 151 161 202 239 267 313 345 441
34 84 152 162 203 240 268 314 346 442
35 85 153 163 204 241 269 315 347 443
36 86 154 164 205 242 270 316 348 444
37 87 155 165 206 243 271 317 349 445
38 88 156 166 207 244 272 318 350 446
39 89 157 167 208 245 273 319 351 447
40 90 158 168 209 246 274 320 352 448
20 55 360 449
21 56 361 450
22 57 362 451
23 58 363 452
24 59 364 453
25 60 365 454
26 61 366 455
27 62 367 456
28 63 368 457
29 64 369 458
30 33 370 459
31 34 371 460
32 35 372 461
1 36 373 462
2 37 374 463
3 38 375 464
4 39 376 465
5 40 377 466
6 41 378 467
7 42 379 468
8 43 380 469
9 44 381 470
10 45 382 471
11 46 383 472
12 47 384 473
13 48 353 474
14 49 354 475
15 50 355 476
16 51 356 477
17 52 357 478
18 53 358 479
19 54 359 480
