2304 720
68 127 189 259 364 437 678 721 837 865 980 1098 1153 1320 1369 1442 1558 1586 1657
69 128 190 260 365 438 679 722 838 866 981 1099 1154 1321 1370 1443 1559 1587 1658
70 129 191 261 366 439 680 723 839 867 982 1100 1155 1322 1371 1444 1560 1588 1659
71 130 192 262 367 440 681 724 840 868 983 1101 1156 1323 1372 1445 1561 1589 1660
72 131 193 263 368 441 682 725 841 869 984 1102 1157 1324 1373 1446 1562 1590 1661
1 132 194 264 369 442 683 726 842 870 985 1103 1158 1325 1374 1447 1563 1591 1662
2 133 195 265 370 443 684 727 843 871 986 1104 1159 1326 1375 1448 1564 1592 1663
3 134 196 266 371 444 685 728 844 872 987 1105 1160 1327 1376 1449 1565 1593 1664
4 135 197 267 372 445 686 729 845 873 988 1106 1161 1328 1377 1450 1566 1594 1665
5 136 198 268 373 446 687 730 846 874 989 1107 1162 1329 1378 1451 1567 1595 1666
6 137 199 269 374 447 688 731 847 875 990 1108 1163 1330 1379 1452 1568 1596 1667
7 138 200 270 375 448 689 732 848 876 991 1109 1164 1331 1380 1453 1569 1597 1668
8 139 201 271 376 449 690 733 849 877 992 1110 1165 1332 1381 1454 1570 1598 1669
9 140 202 272 377 450 691 734 850 878 993 1111 1166 1333 1382 1455 1571 1599 1670
10 141 203 273 378 451 692 735 851 879 994 1112 1167 1334 1383 1456 1572 1600 1671
11 142 204 274 379 452 693 736 852 880 995 1113 1168 1335 1384 1457 1573 1601 1672
12 143 205 275 380 453 694 737 853 881 996 1114 1169 1336 1385 1458 1574 1602 1673
13 144 206 276 381 454 695 738 854 882 997 1115 1170 1337 1386 1459 1575 1603 1674
14 73 207 277 382 455 696 739 855 883 998 1116 1171 1338 1387 1460 1576 1604 1675
15 74 208 278 383 456 697 740 856 884 999 1117 1172 1339 1388 1461 1577 1605 1676
16 75 209 279 384 457 698 741 857 885 1000 1118 1173 1340 1389 1462 1578 1606 1677
17 76 210 280 385 458 699 742 858 886 1001 1119 1174 1341 1390 1463 1579 1607 1678
18 77 211 281 386 459 700 743 859 887 1002 1120 1175 1342 1391 1464 1580 1608 1679
19 78 212 282 387 460 701 744 860 888 1003 1121 1176 1343 1392 1465 1581 1609 1680
20 79 213 283 388 461 702 745 861 889 1004 1122 1177 1344 1393 1466 1582 1610 1681
21 80 214 284 389 462 703 746 862 890 1005 1123 1178 1345 1394 1467 1583 1611 1682
22 81 215 285 390 463 704 747 863 891 1006 1124 1179 1346 1395 1468 1584 1612 1683
23 82 216 286 391 464 705 748 864 892 1007 1125 1180 1347 1396 1469 1513 1613 1684
24 83 145 287 392 465 706 749 793 893 1008 1126 1181 1348 1397 1470 1514 1614 1685
25 84 146 288 393 466 707 750 794 894 937 1127 1182 1349 1398 1471 1515 1615 1686
26 85 147 217 394 467 708 751 795 895 938 1128 1183 1350 1399 1472 1516 1616 1687
27 86 148 218 395 468 709 752 796 896 939 1129 1184 1351 1400 1473 1517 1617 1688
28 87 149 219 396 469 710 753 797 897 940 1130 1185 1352 1401 1474 1518 1618 1689
29 88 150 220 397 470 711 754 798 898 941 1131 1186 1353 1402 1475 1519 1619 1690
30 89 151 221 398 471 712 755 799 899 942 1132 1187 1354 1403 1476 1520 1620 1691
31 90 152 222 399 472 713 756 800 900 943 1133 1188 1355 1404 1477 1521 1621 1692
32 91 153 223 400 473 714 757 801 901 944 1134 1189 1356 1405 1478 1522 1622 1693
33 92 154 224 401 474 715 758 802 902 945 1135 1190 1357 1406 1479 1523 1623 1694
34 93 155 225 402 475 716 759 803 903 946 1136 1191 1358 1407 1480 1524 1624 1695
35 94 156 226 403 476 717 760 804 904 947 1137 1192 1359 1408 1481 1525 1625 1696
36 95 157 227 404 477 718 761 805 905 948 1138 1193 1360 1409 1482 1526 1626 1697
37 96 158 228 405 478 719 762 806 906 949 1139 1194 1361 1410 1483 1527 1627 1698
38 97 159 229 406 479 720 763 807 907 950 1140 1195 1362 1411 1484 1528 1628 1699
39 98 160 230 407 480 649 764 808 908 951 1141 1196 1363 1412 1485 1529 1629 1700
40 99 161 231 408 481 650 765 809 909 952 1142 1197 1364 1413 1486 1530 1630 1701
41 100 162 232 409 482 651 766 810 910 953 1143 1198 1365 1414 1487 1531 1631 1702
42 101 163 233 410 483 652 767 811 911 954 1144 1199 1366 1415 1488 1532 1632 1703
43 102 164 234 411 484 653 768 812 912 955 1145 1200 1367 1416 1489 1533 1633 1704
44 103 165 235 412 485 654 769 813 913 956 1146 1201 1368 1417 1490 1534 1634 1705
45 104 166 236 413 486 655 770 814 914 957 1147 1202 1297 1418 1491 1535 1635 1706
46 105 167 237 414 487 656 771 815 915 958 1148 1203 1298 1419 1492 1536 1636 1707
47 106 168 238 415 488 657 772 816 916 959 1149 1204 1299 1420 1493 1537 1637 1708
48 107 169 239 416 489 658 773 817 917 960 1150 1205 1300 1421 1494 1538 1638 1709
49 108 170 240 417 490 659 774 818 918 961 1151 1206 1301 1422 1495 1539 1639 1710
50 109 171 241 418 491 660 775 819 919 962 1152 1207 1302 1423 1496 1540 1640 1711
51 110 172 242 419 492 661 776 820 920 963 1081 1208 1303 1424 1497 1541 1641 1712
52 111 173 243 420 493 662 777 821 921 964 1082 1209 1304 1425 1498 1542 1642 1713
53 112 174 244 421 494 663 778 822 922 965 1083 1210 1305 1426 1499 1543 1643 1714
54 113 175 245 422 495 664 779 823 923 966 1084 1211 1306 1427 1500 1544 1644 1715
55 114 176 246 423 496 665 780 824 924 967 1085 1212 1307 1428 1501 1545 1645 1716
56 115 177 247 424 497 666 781 825 925 968 1086 1213 1308 1429 1502 1546 1646 1717
57 116 178 248 425 498 667 782 826 926 969 1087 1214 1309 1430 1503 1547 1647 1718
58 117 179 249 426 499 668 783 827 927 970 1088 1215 1310 1431 1504 1548 1648 1719
59 118 180 250 427 500 669 784 828 928 971 1089 1216 1311 1432 1505 1549 1649 1720
60 119 181 251 428 501 670 785 829 929 972 1090 1217 1312 1433 1506 1550 1650 1721
61 120 182 252 429 502 671 786 830 930 973 1091 1218 1313 1434 1507 1551 1651 1722
62 121 183 253 430 503 672 787 831 931 974 1092 1219 1314 1435 1508 1552 1652 1723
63 122 184 254 431 504 673 788 832 932 975 1093 1220 1315 1436 1509 1553 1653 1724
64 123 185 255 432 433 674 789 833 933 976 1094 1221 1316 1437 1510 1554 1654 1725
65 124 186 256 361 434 675 790 834 934 977 1095 1222 1317 1438 1511 1555 1655 1726
66 125 187 257 362 435 676 791 835 935 978 1096 1223 1318 1439 1512 1556 1656 1727
67 126 188 258 363 436 677 792 836 936 979 1097 1224 1319 1440 1441 1557 1585 1728
36 163 224 329 377 509 635 694 830 880 1009 1089 1167 1228 1381 1560 1585 1657 1729
37 164 225 330 378 510 636 695 831 881 1010 1090 1168 1229 1382 1561 1586 1658 1730
38 165 226 331 379 511 637 696 832 882 1011 1091 1169 1230 1383 1562 1587 1659 1731
39 166 227 332 380 512 638 697 833 883 1012 1092 1170 1231 1384 1563 1588 1660 1732
40 167 228 333 381 513 639 698 834 884 1013 1093 1171 1232 1385 1564 1589 1661 1733
41 168 229 334 382 514 640 699 835 885 1014 1094 1172 1233 1386 1565 1590 1662 1734
42 169 230 335 383 515 641 700 836 886 1015 1095 1173 1234 1387 1566 1591 1663 1735
43 170 231 336 384 516 642 701 837 887 1016 1096 1174 1235 1388 1567 1592 1664 1736
44 171 232 337 385 517 643 702 838 888 1017 1097 1175 1236 1389 1568 1593 1665 1737
45 172 233 338 386 518 644 703 839 889 1018 1098 1176 1237 1390 1569 1594 1666 1738
46 173 234 339 387 519 645 704 840 890 1019 1099 1177 1238 1391 1570 1595 1667 1739
47 174 235 340 388 520 646 705 841 891 1020 1100 1178 1239 1392 1571 1596 1668 1740
48 175 236 341 389 521 647 706 842 892 1021 1101 1179 1240 1393 1572 1597 1669 1741
49 176 237 342 390 522 648 707 843 893 1022 1102 1180 1241 1394 1573 1598 1670 1742
50 177 238 343 391 523 577 708 844 894 1023 1103 1181 1242 1395 1574 1599 1671 1743
51 178 239 344 392 524 578 709 845 895 1024 1104 1182 1243 1396 1575 1600 1672 1744
52 179 240 345 393 525 579 710 846 896 1025 1105 1183 1244 1397 1576 1601 1673 1745
53 180 241 346 394 526 580 711 847 897 1026 1106 1184 1245 1398 1577 1602 1674 1746
54 181 242 347 395 527 581 712 848 898 1027 1107 1185 1246 1399 1578 1603 1675 1747
55 182 243 348 396 528 582 713 849 899 1028 1108 1186 1247 1400 1579 1604 1676 1748
56 183 244 349 397 529 583 714 850 900 1029 1109 1187 1248 1401 1580 1605 1677 1749
57 184 245 350 398 530 584 715 851 901 1030 1110 1188 1249 1402 1581 1606 1678 1750
58 185 246 351 399 531 585 716 852 902 1031 1111 1189 1250 1403 1582 1607 1679 1751
59 186 247 352 400 532 586 717 853 903 1032 1112 1190 1251 1404 1583 1608 1680 1752
60 187 248 353 401 533 587 718 854 904 1033 1113 1191 1252 1405 1584 1609 1681 1753
61 188 249 354 402 534 588 719 855 905 1034 1114 1192 1253 1406 1513 1610 1682 1754
62 189 250 355 403 535 589 720 856 906 1035 1115 1193 1254 1407 1514 1611 1683 1755
63 190 251 356 404 536 590 649 857 907 1036 1116 1194 1255 1408 1515 1612 1684 1756
64 191 252 357 405 537 591 650 858 908 1037 1117 1195 1256 1409 1516 1613 1685 1757
65 192 253 358 406 538 592 651 859 909 1038 1118 1196 1257 1410 1517 1614 1686 1758
66 193 254 359 407 539 593 652 860 910 1039 1119 1197 1258 1411 1518 1615 1687 1759
67 194 255 360 408 540 594 653 861 911 1040 1120 1198 1259 1412 1519 1616 1688 1760
68 195 256 289 409 541 595 654 862 912 1041 1121 1199 1260 1413 1520 1617 1689 1761
69 196 257 290 410 542 596 655 863 913 1042 1122 1200 1261 1414 1521 1618 1690 1762
70 197 258 291 411 543 597 656 864 914 1043 1123 1201 1262 1415 1522 1619 1691 1763
71 198 259 292 412 544 598 657 793 915 1044 1124 1202 1263 1416 1523 1620 1692 1764
72 199 260 293 413 545 599 658 794 916 1045 1125 1203 1264 1417 1524 1621 1693 1765
1 200 261 294 414 546 600 659 795 917 1046 1126 1204 1265 1418 1525 1622 1694 1766
2 201 262 295 415 547 601 660 796 918 1047 1127 1205 1266 1419 1526 1623 1695 1767
3 202 263 296 416 548 602 661 797 919 1048 1128 1206 1267 1420 1527 1624 1696 1768
4 203 264 297 417 549 603 662 798 920 1049 1129 1207 1268 1421 1528 1625 1697 1769
5 204 265 298 418 550 604 663 799 921 1050 1130 1208 1269 1422 1529 1626 1698 1770
6 205 266 299 419 551 605 664 800 922 1051 1131 1209 1270 1423 1530 1627 1699 1771
7 206 267 300 420 552 606 665 801 923 1052 1132 1210 1271 1424 1531 1628 1700 1772
8 207 268 301 421 553 607 666 802 924 1053 1133 1211 1272 1425 1532 1629 1701 1773
9 208 269 302 422 554 608 667 803 925 1054 1134 1212 1273 1426 1533 1630 1702 1774
10 209 270 303 423 555 609 668 804 926 1055 1135 1213 1274 1427 1534 1631 1703 1775
11 210 271 304 424 556 610 669 805 927 1056 1136 1214 1275 1428 1535 1632 1704 1776
12 211 272 305 425 557 611 670 806 928 1057 1137 1215 1276 1429 1536 1633 1705 1777
13 212 273 306 426 558 612 671 807 929 1058 1138 1216 1277 1430 1537 1634 1706 1778
14 213 274 307 427 559 613 672 808 930 1059 1139 1217 1278 1431 1538 1635 1707 1779
15 214 275 308 428 560 614 673 809 931 1060 1140 1218 1279 1432 1539 1636 1708 1780
16 215 276 309 429 561 615 674 810 932 1061 1141 1219 1280 1433 1540 1637 1709 1781
17 216 277 310 430 562 616 675 811 933 1062 1142 1220 1281 1434 1541 1638 1710 1782
18 145 278 311 431 563 617 676 812 934 1063 1143 1221 1282 1435 1542 1639 1711 1783
19 146 279 312 432 564 618 677 813 935 1064 1144 1222 1283 1436 1543 1640 1712 1784
20 147 280 313 361 565 619 678 814 936 1065 1145 1223 1284 1437 1544 1641 1713 1785
21 148 281 314 362 566 620 679 815 865 1066 1146 1224 1285 1438 1545 1642 1714 1786
22 149 282 315 363 567 621 680 816 866 1067 1147 1153 1286 1439 1546 1643 1715 1787
23 150 283 316 364 568 622 681 817 867 1068 1148 1154 1287 1440 1547 1644 1716 1788
24 151 284 317 365 569 623 682 818 868 1069 1149 1155 1288 1369 1548 1645 1717 1789
25 152 285 318 366 570 624 683 819 869 1070 1150 1156 1289 1370 1549 1646 1718 1790
26 153 286 319 367 571 625 684 820 870 1071 1151 1157 1290 1371 1550 1647 1719 1791
27 154 287 320 368 572 626 685 821 871 1072 1152 1158 1291 1372 1551 1648 1720 1792
28 155 288 321 369 573 627 686 822 872 1073 1081 1159 1292 1373 1552 1649 1721 1793
29 156 217 322 370 574 628 687 823 873 1074 1082 1160 1293 1374 1553 1650 1722 1794
30 157 218 323 371 575 629 688 824 874 1075 1083 1161 1294 1375 1554 1651 1723 1795
31 158 219 324 372 576 630 689 825 875 1076 1084 1162 1295 1376 1555 1652 1724 1796
32 159 220 325 373 505 631 690 826 876 1077 1085 1163 1296 1377 1556 1653 1725 1797
33 160 221 326 374 506 632 691 827 877 1078 1086 1164 1225 1378 1557 1654 1726 1798
34 161 222 327 375 507 633 692 828 878 1079 1087 1165 1226 1379 1558 1655 1727 1799
35 162 223 328 376 508 634 693 829 879 1080 1088 1166 1227 1380 1559 1656 1728 1800
43 96 149 350 388 491 507 640 649 724 939 1022 1081 1225 1350 1425 1459 1729 1801
44 97 150 351 389 492 508 641 650 725 940 1023 1082 1226 1351 1426 1460 1730 1802
45 98 151 352 390 493 509 642 651 726 941 1024 1083 1227 1352 1427 1461 1731 1803
46 99 152 353 391 494 510 643 652 727 942 1025 1084 1228 1353 1428 1462 1732 1804
47 100 153 354 392 495 511 644 653 728 943 1026 1085 1229 1354 1429 1463 1733 1805
48 101 154 355 393 496 512 645 654 729 944 1027 1086 1230 1355 1430 1464 1734 1806
49 102 155 356 394 497 513 646 655 730 945 1028 1087 1231 1356 1431 1465 1735 1807
50 103 156 357 395 498 514 647 656 731 946 1029 1088 1232 1357 1432 1466 1736 1808
51 104 157 358 396 499 515 648 657 732 947 1030 1089 1233 1358 1433 1467 1737 1809
52 105 158 359 397 500 516 577 658 733 948 1031 1090 1234 1359 1434 1468 1738 1810
53 106 159 360 398 501 517 578 659 734 949 1032 1091 1235 1360 1435 1469 1739 1811
54 107 160 289 399 502 518 579 660 735 950 1033 1092 1236 1361 1436 1470 1740 1812
55 108 161 290 400 503 519 580 661 736 951 1034 1093 1237 1362 1437 1471 1741 1813
56 109 162 291 401 504 520 581 662 737 952 1035 1094 1238 1363 1438 1472 1742 1814
57 110 163 292 402 433 521 582 663 738 953 1036 1095 1239 1364 1439 1473 1743 1815
58 111 164 293 403 434 522 583 664 739 954 1037 1096 1240 1365 1440 1474 1744 1816
59 112 165 294 404 435 523 584 665 740 955 1038 1097 1241 1366 1369 1475 1745 1817
60 113 166 295 405 436 524 585 666 741 956 1039 1098 1242 1367 1370 1476 1746 1818
61 114 167 296 406 437 525 586 667 742 957 1040 1099 1243 1368 1371 1477 1747 1819
62 115 168 297 407 438 526 587 668 743 958 1041 1100 1244 1297 1372 1478 1748 1820
63 116 169 298 408 439 527 588 669 744 959 1042 1101 1245 1298 1373 1479 1749 1821
64 117 170 299 409 440 528 589 670 745 960 1043 1102 1246 1299 1374 1480 1750 1822
65 118 171 300 410 441 529 590 671 746 961 1044 1103 1247 1300 1375 1481 1751 1823
66 119 172 301 411 442 530 591 672 747 962 1045 1104 1248 1301 1376 1482 1752 1824
67 120 173 302 412 443 531 592 673 748 963 1046 1105 1249 1302 1377 1483 1753 1825
68 121 174 303 413 444 532 593 674 749 964 1047 1106 1250 1303 1378 1484 1754 1826
69 122 175 304 414 445 533 594 675 750 965 1048 1107 1251 1304 1379 1485 1755 1827
70 123 176 305 415 446 534 595 676 751 966 1049 1108 1252 1305 1380 1486 1756 1828
71 124 177 306 416 447 535 596 677 752 967 1050 1109 1253 1306 1381 1487 1757 1829
72 125 178 307 417 448 536 597 678 753 968 1051 1110 1254 1307 1382 1488 1758 1830
1 126 179 308 418 449 537 598 679 754 969 1052 1111 1255 1308 1383 1489 1759 1831
2 127 180 309 419 450 538 599 680 755 970 1053 1112 1256 1309 1384 1490 1760 1832
3 128 181 310 420 451 539 600 681 756 971 1054 1113 1257 1310 1385 1491 1761 1833
4 129 182 311 421 452 540 601 682 757 972 1055 1114 1258 1311 1386 1492 1762 1834
5 130 183 312 422 453 541 602 683 758 973 1056 1115 1259 1312 1387 1493 1763 1835
6 131 184 313 423 454 542 603 684 759 974 1057 1116 1260 1313 1388 1494 1764 1836
7 132 185 314 424 455 543 604 685 760 975 1058 1117 1261 1314 1389 1495 1765 1837
8 133 186 315 425 456 544 605 686 761 976 1059 1118 1262 1315 1390 1496 1766 1838
9 134 187 316 426 457 545 606 687 762 977 1060 1119 1263 1316 1391 1497 1767 1839
10 135 188 317 427 458 546 607 688 763 978 1061 1120 1264 1317 1392 1498 1768 1840
11 136 189 318 428 459 547 608 689 764 979 1062 1121 1265 1318 1393 1499 1769 1841
12 137 190 319 429 460 548 609 690 765 980 1063 1122 1266 1319 1394 1500 1770 1842
13 138 191 320 430 461 549 610 691 766 981 1064 1123 1267 1320 1395 1501 1771 1843
14 139 192 321 431 462 550 611 692 767 982 1065 1124 1268 1321 1396 1502 1772 1844
15 140 193 322 432 463 551 612 693 768 983 1066 1125 1269 1322 1397 1503 1773 1845
16 141 194 323 361 464 552 613 694 769 984 1067 1126 1270 1323 1398 1504 1774 1846
17 142 195 324 362 465 553 614 695 770 985 1068 1127 1271 1324 1399 1505 1775 1847
18 143 196 325 363 466 554 615 696 771 986 1069 1128 1272 1325 1400 1506 1776 1848
19 144 197 326 364 467 555 616 697 772 987 1070 1129 1273 1326 1401 1507 1777 1849
20 73 198 327 365 468 556 617 698 773 988 1071 1130 1274 1327 1402 1508 1778 1850
21 74 199 328 366 469 557 618 699 774 989 1072 1131 1275 1328 1403 1509 1779 1851
22 75 200 329 367 470 558 619 700 775 990 1073 1132 1276 1329 1404 1510 1780 1852
23 76 201 330 368 471 559 620 701 776 991 1074 1133 1277 1330 1405 1511 1781 1853
24 77 202 331 369 472 560 621 702 777 992 1075 1134 1278 1331 1406 1512 1782 1854
25 78 203 332 370 473 561 622 703 778 993 1076 1135 1279 1332 1407 1441 1783 1855
26 79 204 333 371 474 562 623 704 779 994 1077 1136 1280 1333 1408 1442 1784 1856
27 80 205 334 372 475 563 624 705 780 995 1078 1137 1281 1334 1409 1443 1785 1857
28 81 206 335 373 476 564 625 706 781 996 1079 1138 1282 1335 1410 1444 1786 1858
29 82 207 336 374 477 565 626 707 782 997 1080 1139 1283 1336 1411 1445 1787 1859
30 83 208 337 375 478 566 627 708 783 998 1009 1140 1284 1337 1412 1446 1788 1860
31 84 209 338 376 479 567 628 709 784 999 1010 1141 1285 1338 1413 1447 1789 1861
32 85 210 339 377 480 568 629 710 785 1000 1011 1142 1286 1339 1414 1448 1790 1862
33 86 211 340 378 481 569 630 711 786 1001 1012 1143 1287 1340 1415 1449 1791 1863
34 87 212 341 379 482 570 631 712 787 1002 1013 1144 1288 1341 1416 1450 1792 1864
35 88 213 342 380 483 571 632 713 788 1003 1014 1145 1289 1342 1417 1451 1793 1865
36 89 214 343 381 484 572 633 714 789 1004 1015 1146 1290 1343 1418 1452 1794 1866
37 90 215 344 382 485 573 634 715 790 1005 1016 1147 1291 1344 1419 1453 1795 1867
38 91 216 345 383 486 574 635 716 791 1006 1017 1148 1292 1345 1420 1454 1796 1868
39 92 145 346 384 487 575 636 717 792 1007 1018 1149 1293 1346 1421 1455 1797 1869
40 93 146 347 385 488 576 637 718 721 1008 1019 1150 1294 1347 1422 1456 1798 1870
41 94 147 348 386 489 505 638 719 722 937 1020 1151 1295 1348 1423 1457 1799 1871
42 95 148 349 387 490 506 639 720 723 938 1021 1152 1296 1349 1424 1458 1800 1872
44 74 239 325 443 565 630 762 811 922 973 1052 1179 1246 1297 1482 1549 1586 1801
45 75 240 326 444 566 631 763 812 923 974 1053 1180 1247 1298 1483 1550 1587 1802
46 76 241 327 445 567 632 764 813 924 975 1054 1181 1248 1299 1484 1551 1588 1803
47 77 242 328 446 568 633 765 814 925 976 1055 1182 1249 1300 1485 1552 1589 1804
48 78 243 329 447 569 634 766 815 926 977 1056 1183 1250 1301 1486 1553 1590 1805
49 79 244 330 448 570 635 767 816 927 978 1057 1184 1251 1302 1487 1554 1591 1806
50 80 245 331 449 571 636 768 817 928 979 1058 1185 1252 1303 1488 1555 1592 1807
51 81 246 332 450 572 637 769 818 929 980 1059 1186 1253 1304 1489 1556 1593 1808
52 82 247 333 451 573 638 770 819 930 981 1060 1187 1254 1305 1490 1557 1594 1809
53 83 248 334 452 574 639 771 820 931 982 1061 1188 1255 1306 1491 1558 1595 1810
54 84 249 335 453 575 640 772 821 932 983 1062 1189 1256 1307 1492 1559 1596 1811
55 85 250 336 454 576 641 773 822 933 984 1063 1190 1257 1308 1493 1560 1597 1812
56 86 251 337 455 505 642 774 823 934 985 1064 1191 1258 1309 1494 1561 1598 1813
57 87 252 338 456 506 643 775 824 935 986 1065 1192 1259 1310 1495 1562 1599 1814
58 88 253 339 457 507 644 776 825 936 987 1066 1193 1260 1311 1496 1563 1600 1815
59 89 254 340 458 508 645 777 826 865 988 1067 1194 1261 1312 1497 1564 1601 1816
60 90 255 341 459 509 646 778 827 866 989 1068 1195 1262 1313 1498 1565 1602 1817
61 91 256 342 460 510 647 779 828 867 990 1069 1196 1263 1314 1499 1566 1603 1818
62 92 257 343 461 511 648 780 829 868 991 1070 1197 1264 1315 1500 1567 1604 1819
63 93 258 344 462 512 577 781 830 869 992 1071 1198 1265 1316 1501 1568 1605 1820
64 94 259 345 463 513 578 782 831 870 993 1072 1199 1266 1317 1502 1569 1606 1821
65 95 260 346 464 514 579 783 832 871 994 1073 1200 1267 1318 1503 1570 1607 1822
66 96 261 347 465 515 580 784 833 872 995 1074 1201 1268 1319 1504 1571 1608 1823
67 97 262 348 466 516 581 785 834 873 996 1075 1202 1269 1320 1505 1572 1609 1824
68 98 263 349 467 517 582 786 835 874 997 1076 1203 1270 1321 1506 1573 1610 1825
69 99 264 350 468 518 583 787 836 875 998 1077 1204 1271 1322 1507 1574 1611 1826
70 100 265 351 469 519 584 788 837 876 999 1078 1205 1272 1323 1508 1575 1612 1827
71 101 266 352 470 520 585 789 838 877 1000 1079 1206 1273 1324 1509 1576 1613 1828
72 102 267 353 471 521 586 790 839 878 1001 1080 1207 1274 1325 1510 1577 1614 1829
1 103 268 354 472 522 587 791 840 879 1002 1009 1208 1275 1326 1511 1578 1615 1830
2 104 269 355 473 523 588 792 841 880 1003 1010 1209 1276 1327 1512 1579 1616 1831
3 105 270 356 474 524 589 721 842 881 1004 1011 1210 1277 1328 1441 1580 1617 1832
4 106 271 357 475 525 590 722 843 882 1005 1012 1211 1278 1329 1442 1581 1618 1833
5 107 272 358 476 526 591 723 844 883 1006 1013 1212 1279 1330 1443 1582 1619 1834
6 108 273 359 477 527 592 724 845 884 1007 1014 1213 1280 1331 1444 1583 1620 1835
7 109 274 360 478 528 593 725 846 885 1008 1015 1214 1281 1332 1445 1584 1621 1836
8 110 275 289 479 529 594 726 847 886 937 1016 1215 1282 1333 1446 1513 1622 1837
9 111 276 290 480 530 595 727 848 887 938 1017 1216 1283 1334 1447 1514 1623 1838
10 112 277 291 481 531 596 728 849 888 939 1018 1217 1284 1335 1448 1515 1624 1839
11 113 278 292 482 532 597 729 850 889 940 1019 1218 1285 1336 1449 1516 1625 1840
12 114 279 293 483 533 598 730 851 890 941 1020 1219 1286 1337 1450 1517 1626 1841
13 115 280 294 484 534 599 731 852 891 942 1021 1220 1287 1338 1451 1518 1627 1842
14 116 281 295 485 535 600 732 853 892 943 1022 1221 1288 1339 1452 1519 1628 1843
15 117 282 296 486 536 601 733 854 893 944 1023 1222 1289 1340 1453 1520 1629 1844
16 118 283 297 487 537 602 734 855 894 945 1024 1223 1290 1341 1454 1521 1630 1845
17 119 284 298 488 538 603 735 856 895 946 1025 1224 1291 1342 1455 1522 1631 1846
18 120 285 299 489 539 604 736 857 896 947 1026 1153 1292 1343 1456 1523 1632 1847
19 121 286 300 490 540 605 737 858 897 948 1027 1154 1293 1344 1457 1524 1633 1848
20 122 287 301 491 541 606 738 859 898 949 1028 1155 1294 1345 1458 1525 1634 1849
21 123 288 302 492 542 607 739 860 899 950 1029 1156 1295 1346 1459 1526 1635 1850
22 124 217 303 493 543 608 740 861 900 951 1030 1157 1296 1347 1460 1527 1636 1851
23 125 218 304 494 544 609 741 862 901 952 1031 1158 1225 1348 1461 1528 1637 1852
24 126 219 305 495 545 610 742 863 902 953 1032 1159 1226 1349 1462 1529 1638 1853
25 127 220 306 496 546 611 743 864 903 954 1033 1160 1227 1350 1463 1530 1639 1854
26 128 221 307 497 547 612 744 793 904 955 1034 1161 1228 1351 1464 1531 1640 1855
27 129 222 308 498 548 613 745 794 905 956 1035 1162 1229 1352 1465 1532 1641 1856
28 130 223 309 499 549 614 746 795 906 957 1036 1163 1230 1353 1466 1533 1642 1857
29 131 224 310 500 550 615 747 796 907 958 1037 1164 1231 1354 1467 1534 1643 1858
30 132 225 311 501 551 616 748 797 908 959 1038 1165 1232 1355 1468 1535 1644 1859
31 133 226 312 502 552 617 749 798 909 960 1039 1166 1233 1356 1469 1536 1645 1860
32 134 227 313 503 553 618 750 799 910 961 1040 1167 1234 1357 1470 1537 1646 1861
33 135 228 314 504 554 619 751 800 911 962 1041 1168 1235 1358 1471 1538 1647 1862
34 136 229 315 433 555 620 752 801 912 963 1042 1169 1236 1359 1472 1539 1648 1863
35 137 230 316 434 556 621 753 802 913 964 1043 1170 1237 1360 1473 1540 1649 1864
36 138 231 317 435 557 622 754 803 914 965 1044 1171 1238 1361 1474 1541 1650 1865
37 139 232 318 436 558 623 755 804 915 966 1045 1172 1239 1362 1475 1542 1651 1866
38 140 233 319 437 559 624 756 805 916 967 1046 1173 1240 1363 1476 1543 1652 1867
39 141 234 320 438 560 625 757 806 917 968 1047 1174 1241 1364 1477 1544 1653 1868
40 142 235 321 439 561 626 758 807 918 969 1048 1175 1242 1365 1478 1545 1654 1869
41 143 236 322 440 562 627 759 808 919 970 1049 1176 1243 1366 1479 1546 1655 1870
42 144 237 323 441 563 628 760 809 920 971 1050 1177 1244 1367 1480 1547 1656 1871
43 73 238 324 442 564 629 761 810 921 972 1051 1178 1245 1368 1481 1548 1585 1872
31 92 1873
32 93 1874
33 94 1875
34 95 1876
35 96 1877
36 97 1878
37 98 1879
38 99 1880
39 100 1881
40 101 1882
41 102 1883
42 103 1884
43 104 1885
44 105 1886
45 106 1887
46 107 1888
47 108 1889
48 109 1890
49 110 1891
50 111 1892
51 112 1893
52 113 1894
53 114 1895
54 115 1896
55 116 1897
56 117 1898
57 118 1899
58 119 1900
59 120 1901
60 121 1902
61 122 1903
62 123 1904
63 124 1905
64 125 1906
65 126 1907
66 127 1908
67 128 1909
68 129 1910
69 130 1911
70 131 1912
71 132 1913
72 133 1914
1 134 1915
2 135 1916
3 136 1917
4 137 1918
5 138 1919
6 139 1920
7 140 1921
8 141 1922
9 142 1923
10 143 1924
11 144 1925
12 73 1926
13 74 1927
14 75 1928
15 76 1929
16 77 1930
17 78 1931
18 79 1932
19 80 1933
20 81 1934
21 82 1935
22 83 1936
23 84 1937
24 85 1938
25 86 1939
26 87 1940
27 88 1941
28 89 1942
29 90 1943
30 91 1944
46 110 217 932 1191 1520 1585 1945
47 111 218 933 1192 1521 1586 1946
48 112 219 934 1193 1522 1587 1947
49 113 220 935 1194 1523 1588 1948
50 114 221 936 1195 1524 1589 1949
51 115 222 865 1196 1525 1590 1950
52 116 223 866 1197 1526 1591 1951
53 117 224 867 1198 1527 1592 1952
54 118 225 868 1199 1528 1593 1953
55 119 226 869 1200 1529 1594 1954
56 120 227 870 1201 1530 1595 1955
57 121 228 871 1202 1531 1596 1956
58 122 229 872 1203 1532 1597 1957
59 123 230 873 1204 1533 1598 1958
60 124 231 874 1205 1534 1599 1959
61 125 232 875 1206 1535 1600 1960
62 126 233 876 1207 1536 1601 1961
63 127 234 877 1208 1537 1602 1962
64 128 235 878 1209 1538 1603 1963
65 129 236 879 1210 1539 1604 1964
66 130 237 880 1211 1540 1605 1965
67 131 238 881 1212 1541 1606 1966
68 132 239 882 1213 1542 1607 1967
69 133 240 883 1214 1543 1608 1968
70 134 241 884 1215 1544 1609 1969
71 135 242 885 1216 1545 1610 1970
72 136 243 886 1217 1546 1611 1971
1 137 244 887 1218 1547 1612 1972
2 138 245 888 1219 1548 1613 1973
3 139 246 889 1220 1549 1614 1974
4 140 247 890 1221 1550 1615 1975
5 141 248 891 1222 1551 1616 1976
6 142 249 892 1223 1552 1617 1977
7 143 250 893 1224 1553 1618 1978
8 144 251 894 1153 1554 1619 1979
9 73 252 895 1154 1555 1620 1980
10 74 253 896 1155 1556 1621 1981
11 75 254 897 1156 1557 1622 1982
12 76 255 898 1157 1558 1623 1983
13 77 256 899 1158 1559 1624 1984
14 78 257 900 1159 1560 1625 1985
15 79 258 901 1160 1561 1626 1986
16 80 259 902 1161 1562 1627 1987
17 81 260 903 1162 1563 1628 1988
18 82 261 904 1163 1564 1629 1989
19 83 262 905 1164 1565 1630 1990
20 84 263 906 1165 1566 1631 1991
21 85 264 907 1166 1567 1632 1992
22 86 265 908 1167 1568 1633 1993
23 87 266 909 1168 1569 1634 1994
24 88 267 910 1169 1570 1635 1995
25 89 268 911 1170 1571 1636 1996
26 90 269 912 1171 1572 1637 1997
27 91 270 913 1172 1573 1638 1998
28 92 271 914 1173 1574 1639 1999
29 93 272 915 1174 1575 1640 2000
30 94 273 916 1175 1576 1641 2001
31 95 274 917 1176 1577 1642 2002
32 96 275 918 1177 1578 1643 2003
33 97 276 919 1178 1579 1644 2004
34 98 277 920 1179 1580 1645 2005
35 99 278 921 1180 1581 1646 2006
36 100 279 922 1181 1582 1647 2007
37 101 280 923 1182 1583 1648 2008
38 102 281 924 1183 1584 1649 2009
39 103 282 925 1184 1513 1650 2010
40 104 283 926 1185 1514 1651 2011
41 105 284 927 1186 1515 1652 2012
42 106 285 928 1187 1516 1653 2013
43 107 286 929 1188 1517 1654 2014
44 108 287 930 1189 1518 1655 2015
45 109 288 931 1190 1519 1656 2016
9 433 746 811 996 1258 1304 1477 2017
10 434 747 812 997 1259 1305 1478 2018
11 435 748 813 998 1260 1306 1479 2019
12 436 749 814 999 1261 1307 1480 2020
13 437 750 815 1000 1262 1308 1481 2021
14 438 751 816 1001 1263 1309 1482 2022
15 439 752 817 1002 1264 1310 1483 2023
16 440 753 818 1003 1265 1311 1484 2024
17 441 754 819 1004 1266 1312 1485 2025
18 442 755 820 1005 1267 1313 1486 2026
19 443 756 821 1006 1268 1314 1487 2027
20 444 757 822 1007 1269 1315 1488 2028
21 445 758 823 1008 1270 1316 1489 2029
22 446 759 824 937 1271 1317 1490 2030
23 447 760 825 938 1272 1318 1491 2031
24 448 761 826 939 1273 1319 1492 2032
25 449 762 827 940 1274 1320 1493 2033
26 450 763 828 941 1275 1321 1494 2034
27 451 764 829 942 1276 1322 1495 2035
28 452 765 830 943 1277 1323 1496 2036
29 453 766 831 944 1278 1324 1497 2037
30 454 767 832 945 1279 1325 1498 2038
31 455 768 833 946 1280 1326 1499 2039
32 456 769 834 947 1281 1327 1500 2040
33 457 770 835 948 1282 1328 1501 2041
34 458 771 836 949 1283 1329 1502 2042
35 459 772 837 950 1284 1330 1503 2043
36 460 773 838 951 1285 1331 1504 2044
37 461 774 839 952 1286 1332 1505 2045
38 462 775 840 953 1287 1333 1506 2046
39 463 776 841 954 1288 1334 1507 2047
40 464 777 842 955 1289 1335 1508 2048
41 465 778 843 956 1290 1336 1509 2049
42 466 779 844 957 1291 1337 1510 2050
43 467 780 845 958 1292 1338 1511 2051
44 468 781 846 959 1293 1339 1512 2052
45 469 782 847 960 1294 1340 1441 2053
46 470 783 848 961 1295 1341 1442 2054
47 471 784 849 962 1296 1342 1443 2055
48 472 785 850 963 1225 1343 1444 2056
49 473 786 851 964 1226 1344 1445 2057
50 474 787 852 965 1227 1345 1446 2058
51 475 788 853 966 1228 1346 1447 2059
52 476 789 854 967 1229 1347 1448 2060
53 477 790 855 968 1230 1348 1449 2061
54 478 791 856 969 1231 1349 1450 2062
55 479 792 857 970 1232 1350 1451 2063
56 480 721 858 971 1233 1351 1452 2064
57 481 722 859 972 1234 1352 1453 2065
58 482 723 860 973 1235 1353 1454 2066
59 483 724 861 974 1236 1354 1455 2067
60 484 725 862 975 1237 1355 1456 2068
61 485 726 863 976 1238 1356 1457 2069
62 486 727 864 977 1239 1357 1458 2070
63 487 728 793 978 1240 1358 1459 2071
64 488 729 794 979 1241 1359 1460 2072
65 489 730 795 980 1242 1360 1461 2073
66 490 731 796 981 1243 1361 1462 2074
67 491 732 797 982 1244 1362 1463 2075
68 492 733 798 983 1245 1363 1464 2076
69 493 734 799 984 1246 1364 1465 2077
70 494 735 800 985 1247 1365 1466 2078
71 495 736 801 986 1248 1366 1467 2079
72 496 737 802 987 1249 1367 1468 2080
1 497 738 803 988 1250 1368 1469 2081
2 498 739 804 989 1251 1297 1470 2082
3 499 740 805 990 1252 1298 1471 2083
4 500 741 806 991 1253 1299 1472 2084
5 501 742 807 992 1254 1300 1473 2085
6 502 743 808 993 1255 1301 1474 2086
7 503 744 809 994 1256 1302 1475 2087
8 504 745 810 995 1257 1303 1476 2088
26 118 299 545 609 1029 2089
27 119 300 546 610 1030 2090
28 120 301 547 611 1031 2091
29 121 302 548 612 1032 2092
30 122 303 549 613 1033 2093
31 123 304 550 614 1034 2094
32 124 305 551 615 1035 2095
33 125 306 552 616 1036 2096
34 126 307 553 617 1037 2097
35 127 308 554 618 1038 2098
36 128 309 555 619 1039 2099
37 129 310 556 620 1040 2100
38 130 311 557 621 1041 2101
39 131 312 558 622 1042 2102
40 132 313 559 623 1043 2103
41 133 314 560 624 1044 2104
42 134 315 561 625 1045 2105
43 135 316 562 626 1046 2106
44 136 317 563 627 1047 2107
45 137 318 564 628 1048 2108
46 138 319 565 629 1049 2109
47 139 320 566 630 1050 2110
48 140 321 567 631 1051 2111
49 141 322 568 632 1052 2112
50 142 323 569 633 1053 2113
51 143 324 570 634 1054 2114
52 144 325 571 635 1055 2115
53 73 326 572 636 1056 2116
54 74 327 573 637 1057 2117
55 75 328 574 638 1058 2118
56 76 329 575 639 1059 2119
57 77 330 576 640 1060 2120
58 78 331 505 641 1061 2121
59 79 332 506 642 1062 2122
60 80 333 507 643 1063 2123
61 81 334 508 644 1064 2124
62 82 335 509 645 1065 2125
63 83 336 510 646 1066 2126
64 84 337 511 647 1067 2127
65 85 338 512 648 1068 2128
66 86 339 513 577 1069 2129
67 87 340 514 578 1070 2130
68 88 341 515 579 1071 2131
69 89 342 516 580 1072 2132
70 90 343 517 581 1073 2133
71 91 344 518 582 1074 2134
72 92 345 519 583 1075 2135
1 93 346 520 584 1076 2136
2 94 347 521 585 1077 2137
3 95 348 522 586 1078 2138
4 96 349 523 587 1079 2139
5 97 350 524 588 1080 2140
6 98 351 525 589 1009 2141
7 99 352 526 590 1010 2142
8 100 353 527 591 1011 2143
9 101 354 528 592 1012 2144
10 102 355 529 593 1013 2145
11 103 356 530 594 1014 2146
12 104 357 531 595 1015 2147
13 105 358 532 596 1016 2148
14 106 359 533 597 1017 2149
15 107 360 534 598 1018 2150
16 108 289 535 599 1019 2151
17 109 290 536 600 1020 2152
18 110 291 537 601 1021 2153
19 111 292 538 602 1022 2154
20 112 293 539 603 1023 2155
21 113 294 540 604 1024 2156
22 114 295 541 605 1025 2157
23 115 296 542 606 1026 2158
24 116 297 543 607 1027 2159
25 117 298 544 608 1028 2160
55 73 253 906 1179 1415 1528 1599 1783 2161
56 74 254 907 1180 1416 1529 1600 1784 2162
57 75 255 908 1181 1417 1530 1601 1785 2163
58 76 256 909 1182 1418 1531 1602 1786 2164
59 77 257 910 1183 1419 1532 1603 1787 2165
60 78 258 911 1184 1420 1533 1604 1788 2166
61 79 259 912 1185 1421 1534 1605 1789 2167
62 80 260 913 1186 1422 1535 1606 1790 2168
63 81 261 914 1187 1423 1536 1607 1791 2169
64 82 262 915 1188 1424 1537 1608 1792 2170
65 83 263 916 1189 1425 1538 1609 1793 2171
66 84 264 917 1190 1426 1539 1610 1794 2172
67 85 265 918 1191 1427 1540 1611 1795 2173
68 86 266 919 1192 1428 1541 1612 1796 2174
69 87 267 920 1193 1429 1542 1613 1797 2175
70 88 268 921 1194 1430 1543 1614 1798 2176
71 89 269 922 1195 1431 1544 1615 1799 2177
72 90 270 923 1196 1432 1545 1616 1800 2178
1 91 271 924 1197 1433 1546 1617 1729 2179
2 92 272 925 1198 1434 1547 1618 1730 2180
3 93 273 926 1199 1435 1548 1619 1731 2181
4 94 274 927 1200 1436 1549 1620 1732 2182
5 95 275 928 1201 1437 1550 1621 1733 2183
6 96 276 929 1202 1438 1551 1622 1734 2184
7 97 277 930 1203 1439 1552 1623 1735 2185
8 98 278 931 1204 1440 1553 1624 1736 2186
9 99 279 932 1205 1369 1554 1625 1737 2187
10 100 280 933 1206 1370 1555 1626 1738 2188
11 101 281 934 1207 1371 1556 1627 1739 2189
12 102 282 935 1208 1372 1557 1628 1740 2190
13 103 283 936 1209 1373 1558 1629 1741 2191
14 104 284 865 1210 1374 1559 1630 1742 2192
15 105 285 866 1211 1375 1560 1631 1743 2193
16 106 286 867 1212 1376 1561 1632 1744 2194
17 107 287 868 1213 1377 1562 1633 1745 2195
18 108 288 869 1214 1378 1563 1634 1746 2196
19 109 217 870 1215 1379 1564 1635 1747 2197
20 110 218 871 1216 1380 1565 1636 1748 2198
21 111 219 872 1217 1381 1566 1637 1749 2199
22 112 220 873 1218 1382 1567 1638 1750 2200
23 113 221 874 1219 1383 1568 1639 1751 2201
24 114 222 875 1220 1384 1569 1640 1752 2202
25 115 223 876 1221 1385 1570 1641 1753 2203
26 116 224 877 1222 1386 1571 1642 1754 2204
27 117 225 878 1223 1387 1572 1643 1755 2205
28 118 226 879 1224 1388 1573 1644 1756 2206
29 119 227 880 1153 1389 1574 1645 1757 2207
30 120 228 881 1154 1390 1575 1646 1758 2208
31 121 229 882 1155 1391 1576 1647 1759 2209
32 122 230 883 1156 1392 1577 1648 1760 2210
33 123 231 884 1157 1393 1578 1649 1761 2211
34 124 232 885 1158 1394 1579 1650 1762 2212
35 125 233 886 1159 1395 1580 1651 1763 2213
36 126 234 887 1160 1396 1581 1652 1764 2214
37 127 235 888 1161 1397 1582 1653 1765 2215
38 128 236 889 1162 1398 1583 1654 1766 2216
39 129 237 890 1163 1399 1584 1655 1767 2217
40 130 238 891 1164 1400 1513 1656 1768 2218
41 131 239 892 1165 1401 1514 1585 1769 2219
42 132 240 893 1166 1402 1515 1586 1770 2220
43 133 241 894 1167 1403 1516 1587 1771 2221
44 134 242 895 1168 1404 1517 1588 1772 2222
45 135 243 896 1169 1405 1518 1589 1773 2223
46 136 244 897 1170 1406 1519 1590 1774 2224
47 137 245 898 1171 1407 1520 1591 1775 2225
48 138 246 899 1172 1408 1521 1592 1776 2226
49 139 247 900 1173 1409 1522 1593 1777 2227
50 140 248 901 1174 1410 1523 1594 1778 2228
51 141 249 902 1175 1411 1524 1595 1779 2229
52 142 250 903 1176 1412 1525 1596 1780 2230
53 143 251 904 1177 1413 1526 1597 1781 2231
54 144 252 905 1178 1414 1527 1598 1782 2232
19 88 742 855 982 1285 1301 1506 2233
20 89 743 856 983 1286 1302 1507 2234
21 90 744 857 984 1287 1303 1508 2235
22 91 745 858 985 1288 1304 1509 2236
23 92 746 859 986 1289 1305 1510 2237
24 93 747 860 987 1290 1306 1511 2238
25 94 748 861 988 1291 1307 1512 2239
26 95 749 862 989 1292 1308 1441 2240
27 96 750 863 990 1293 1309 1442 2241
28 97 751 864 991 1294 1310 1443 2242
29 98 752 793 992 1295 1311 1444 2243
30 99 753 794 993 1296 1312 1445 2244
31 100 754 795 994 1225 1313 1446 2245
32 101 755 796 995 1226 1314 1447 2246
33 102 756 797 996 1227 1315 1448 2247
34 103 757 798 997 1228 1316 1449 2248
35 104 758 799 998 1229 1317 1450 2249
36 105 759 800 999 1230 1318 1451 2250
37 106 760 801 1000 1231 1319 1452 2251
38 107 761 802 1001 1232 1320 1453 2252
39 108 762 803 1002 1233 1321 1454 2253
40 109 763 804 1003 1234 1322 1455 2254
41 110 764 805 1004 1235 1323 1456 2255
42 111 765 806 1005 1236 1324 1457 2256
43 112 766 807 1006 1237 1325 1458 2257
44 113 767 808 1007 1238 1326 1459 2258
45 114 768 809 1008 1239 1327 1460 2259
46 115 769 810 937 1240 1328 1461 2260
47 116 770 811 938 1241 1329 1462 2261
48 117 771 812 939 1242 1330 1463 2262
49 118 772 813 940 1243 1331 1464 2263
50 119 773 814 941 1244 1332 1465 2264
51 120 774 815 942 1245 1333 1466 2265
52 121 775 816 943 1246 1334 1467 2266
53 122 776 817 944 1247 1335 1468 2267
54 123 777 818 945 1248 1336 1469 2268
55 124 778 819 946 1249 1337 1470 2269
56 125 779 820 947 1250 1338 1471 2270
57 126 780 821 948 1251 1339 1472 2271
58 127 781 822 949 1252 1340 1473 2272
59 128 782 823 950 1253 1341 1474 2273
60 129 783 824 951 1254 1342 1475 2274
61 130 784 825 952 1255 1343 1476 2275
62 131 785 826 953 1256 1344 1477 2276
63 132 786 827 954 1257 1345 1478 2277
64 133 787 828 955 1258 1346 1479 2278
65 134 788 829 956 1259 1347 1480 2279
66 135 789 830 957 1260 1348 1481 2280
67 136 790 831 958 1261 1349 1482 2281
68 137 791 832 959 1262 1350 1483 2282
69 138 792 833 960 1263 1351 1484 2283
70 139 721 834 961 1264 1352 1485 2284
71 140 722 835 962 1265 1353 1486 2285
72 141 723 836 963 1266 1354 1487 2286
1 142 724 837 964 1267 1355 1488 2287
2 143 725 838 965 1268 1356 1489 2288
3 144 726 839 966 1269 1357 1490 2289
4 73 727 840 967 1270 1358 1491 2290
5 74 728 841 968 1271 1359 1492 2291
6 75 729 842 969 1272 1360 1493 2292
7 76 730 843 970 1273 1361 1494 2293
8 77 731 844 971 1274 1362 1495 2294
9 78 732 845 972 1275 1363 1496 2295
10 79 733 846 973 1276 1364 1497 2296
11 80 734 847 974 1277 1365 1498 2297
12 81 735 848 975 1278 1366 1499 2298
13 82 736 849 976 1279 1367 1500 2299
14 83 737 850 977 1280 1368 1501 2300
15 84 738 851 978 1281 1297 1502 2301
16 85 739 852 979 1282 1298 1503 2302
17 86 740 853 980 1283 1299 1504 2303
18 87 741 854 981 1284 1300 1505 2304
