896 576
10 54 77 123 222 302 321 353
11 55 78 124 223 303 322 354
12 56 79 125 224 304 323 355
13 57 80 126 193 305 324 356
14 58 81 127 194 306 325 357
15 59 82 128 195 307 326 358
16 60 83 97 196 308 327 359
17 61 84 98 197 309 328 360
18 62 85 99 198 310 329 361
19 63 86 100 199 311 330 362
20 64 87 101 200 312 331 363
21 33 88 102 201 313 332 364
22 34 89 103 202 314 333 365
23 35 90 104 203 315 334 366
24 36 91 105 204 316 335 367
25 37 92 106 205 317 336 368
26 38 93 107 206 318 337 369
27 39 94 108 207 319 338 370
28 40 95 109 208 320 339 371
29 41 96 110 209 289 340 372
30 42 65 111 210 290 341 373
31 43 66 112 211 291 342 374
32 44 67 113 212 292 343 375
1 45 68 114 213 293 344 376
2 46 69 115 214 294 345 377
3 47 70 116 215 295 346 378
4 48 71 117 216 296 347 379
5 49 72 118 217 297 348 380
6 50 73 119 218 298 349 381
7 51 74 120 219 299 350 382
8 52 75 121 220 300 351 383
9 53 76 122 221 301 352 384
8 103 158 190 195 253 257 317 353 385
9 104 159 191 196 254 258 318 354 386
10 105 160 192 197 255 259 319 355 387
11 106 129 161 198 256 260 320 356 388
12 107 130 162 199 225 261 289 357 389
13 108 131 163 200 226 262 290 358 390
14 109 132 164 201 227 263 291 359 391
15 110 133 165 202 228 264 292 360 392
16 111 134 166 203 229 265 293 361 393
17 112 135 167 204 230 266 294 362 394
18 113 136 168 205 231 267 295 363 395
19 114 137 169 206 232 268 296 364 396
20 115 138 170 207 233 269 297 365 397
21 116 139 171 208 234 270 298 366 398
22 117 140 172 209 235 271 299 367 399
23 118 141 173 210 236 272 300 368 400
24 119 142 174 211 237 273 301 369 401
25 120 143 175 212 238 274 302 370 402
26 121 144 176 213 239 275 303 371 403
27 122 145 177 214 240 276 304 372 404
28 123 146 178 215 241 277 305 373 405
29 124 147 179 216 242 278 306 374 406
30 125 148 180 217 243 279 307 375 407
31 126 149 181 218 244 280 308 376 408
32 127 150 182 219 245 281 309 377 409
1 128 151 183 220 246 282 310 378 410
2 97 152 184 221 247 283 311 379 411
3 98 153 185 222 248 284 312 380 412
4 99 154 186 223 249 285 313 381 413
5 100 155 187 224 250 286 314 382 414
6 101 156 188 193 251 287 315 383 415
7 102 157 189 194 252 288 316 384 416
18 51 109 149 273 322 385 417
19 52 110 150 274 323 386 418
20 53 111 151 275 324 387 419
21 54 112 152 276 325 388 420
22 55 113 153 277 326 389 421
23 56 114 154 278 327 390 422
24 57 115 155 279 328 391 423
25 58 116 156 280 329 392 424
26 59 117 157 281 330 393 425
27 60 118 158 282 331 394 426
28 61 119 159 283 332 395 427
29 62 120 160 284 333 396 428
30 63 121 129 285 334 397 429
31 64 122 130 286 335 398 430
32 33 123 131 287 336 399 431
1 34 124 132 288 337 400 432
2 35 125 133 257 338 401 433
3 36 126 134 258 339 402 434
4 37 127 135 259 340 403 435
5 38 128 136 260 341 404 436
6 39 97 137 261 342 405 437
7 40 98 138 262 343 406 438
8 41 99 139 263 344 407 439
9 42 100 140 264 345 408 440
10 43 101 141 265 346 409 441
11 44 102 142 266 347 410 442
12 45 103 143 267 348 411 443
13 46 104 144 268 349 412 444
14 47 105 145 269 350 413 445
15 48 106 146 270 351 414 446
16 49 107 147 271 352 415 447
17 50 108 148 272 321 416 448
41 91 159 169 210 247 275 289 321 417
42 92 160 170 211 248 276 290 322 418
43 93 129 171 212 249 277 291 323 419
44 94 130 172 213 250 278 292 324 420
45 95 131 173 214 251 279 293 325 421
46 96 132 174 215 252 280 294 326 422
47 65 133 175 216 253 281 295 327 423
48 66 134 176 217 254 282 296 328 424
49 67 135 177 218 255 283 297 329 425
50 68 136 178 219 256 284 298 330 426
51 69 137 179 220 225 285 299 331 427
52 70 138 180 221 226 286 300 332 428
53 71 139 181 222 227 287 301 333 429
54 72 140 182 223 228 288 302 334 430
55 73 141 183 224 229 257 303 335 431
56 74 142 184 193 230 258 304 336 432
57 75 143 185 194 231 259 305 337 433
58 76 144 186 195 232 260 306 338 434
59 77 145 187 196 233 261 307 339 435
60 78 146 188 197 234 262 308 340 436
61 79 147 189 198 235 263 309 341 437
62 80 148 190 199 236 264 310 342 438
63 81 149 191 200 237 265 311 343 439
64 82 150 192 201 238 266 312 344 440
33 83 151 161 202 239 267 313 345 441
34 84 152 162 203 240 268 314 346 442
35 85 153 163 204 241 269 315 347 443
36 86 154 164 205 242 270 316 348 444
37 87 155 165 206 243 271 317 349 445
38 88 156 166 207 244 272 318 350 446
39 89 157 167 208 245 273 319 351 447
40 90 158 168 209 246 274 320 352 448
20 55 360 449
21 56 361 450
22 57 362 451
23 58 363 452
24 59 364 453
25 60 365 454
26 61 366 455
27 62 367 456
28 63 368 457
29 64 369 458
30 33 370 459
31 34 371 460
32 35 372 461
1 36 373 462
2 37 374 463
3 38 375 464
4 39 376 465
5 40 377 466
6 41 378 467
7 42 379 468
8 43 380 469
9 44 381 470
10 45 382 471
11 46 383 472
12 47 384 473
13 48 353 474
14 49 354 475
15 50 355 476
16 51 356 477
17 52 357 478
18 53 358 479
19 54 359 480
8 42 163 256 360 481
9 43 164 225 361 482
10 44 165 226 362 483
11 45 166 227 363 484
12 46 167 228 364 485
13 47 168 229 365 486
14 48 169 230 366 487
15 49 170 231 367 488
16 50 171 232 368 489
17 51 172 233 369 490
18 52 173 234 370 491
19 53 174 235 371 492
20 54 175 236 372 493
21 55 176 237 373 494
22 56 177 238 374 495
23 57 178 239 375 496
24 58 179 240 376 497
25 59 180 241 377 498
26 60 181 242 378 499
27 61 182 243 379 500
28 62 183 244 380 501
29 63 184 245 381 502
30 64 185 246 382 503
31 33 186 247 383 504
32 34 187 248 384 505
1 35 188 249 353 506
2 36 189 250 354 507
3 37 190 251 355 508
4 38 191 252 356 509
5 39 192 253 357 510
6 40 161 254 358 511
7 41 162 255 359 512
28 165 238 317 383 513
29 166 239 318 384 514
30 167 240 319 353 515
31 168 241 320 354 516
32 169 242 289 355 517
1 170 243 290 356 518
2 171 244 291 357 519
3 172 245 292 358 520
4 173 246 293 359 521
5 174 247 294 360 522
6 175 248 295 361 523
7 176 249 296 362 524
8 177 250 297 363 525
9 178 251 298 364 526
10 179 252 299 365 527
11 180 253 300 366 528
12 181 254 301 367 529
13 182 255 302 368 530
14 183 256 303 369 531
15 184 225 304 370 532
16 185 226 305 371 533
17 186 227 306 372 534
18 187 228 307 373 535
19 188 229 308 374 536
20 189 230 309 375 537
21 190 231 310 376 538
22 191 232 311 377 539
23 192 233 312 378 540
24 161 234 313 379 541
25 162 235 314 380 542
26 163 236 315 381 543
27 164 237 316 382 544
34 180 237 356 437 545
35 181 238 357 438 546
36 182 239 358 439 547
37 183 240 359 440 548
38 184 241 360 441 549
39 185 242 361 442 550
40 186 243 362 443 551
41 187 244 363 444 552
42 188 245 364 445 553
43 189 246 365 446 554
44 190 247 366 447 555
45 191 248 367 448 556
46 192 249 368 417 557
47 161 250 369 418 558
48 162 251 370 419 559
49 163 252 371 420 560
50 164 253 372 421 561
51 165 254 373 422 562
52 166 255 374 423 563
53 167 256 375 424 564
54 168 225 376 425 565
55 169 226 377 426 566
56 170 227 378 427 567
57 171 228 379 428 568
58 172 229 380 429 569
59 173 230 381 430 570
60 174 231 382 431 571
61 175 232 383 432 572
62 176 233 384 433 573
63 177 234 353 434 574
64 178 235 354 435 575
33 179 236 355 436 576
15 63 391 577
16 64 392 578
17 33 393 579
18 34 394 580
19 35 395 581
20 36 396 582
21 37 397 583
22 38 398 584
23 39 399 585
24 40 400 586
25 41 401 587
26 42 402 588
27 43 403 589
28 44 404 590
29 45 405 591
30 46 406 592
31 47 407 593
32 48 408 594
1 49 409 595
2 50 410 596
3 51 411 597
4 52 412 598
5 53 413 599
6 54 414 600
7 55 415 601
8 56 416 602
9 57 385 603
10 58 386 604
11 59 387 605
12 60 388 606
13 61 389 607
14 62 390 608
44 270 350 376 609
45 271 351 377 610
46 272 352 378 611
47 273 321 379 612
48 274 322 380 613
49 275 323 381 614
50 276 324 382 615
51 277 325 383 616
52 278 326 384 617
53 279 327 353 618
54 280 328 354 619
55 281 329 355 620
56 282 330 356 621
57 283 331 357 622
58 284 332 358 623
59 285 333 359 624
60 286 334 360 625
61 287 335 361 626
62 288 336 362 627
63 257 337 363 628
64 258 338 364 629
33 259 339 365 630
34 260 340 366 631
35 261 341 367 632
36 262 342 368 633
37 263 343 369 634
38 264 344 370 635
39 265 345 371 636
40 266 346 372 637
41 267 347 373 638
42 268 348 374 639
43 269 349 375 640
12 58 193 246 641
13 59 194 247 642
14 60 195 248 643
15 61 196 249 644
16 62 197 250 645
17 63 198 251 646
18 64 199 252 647
19 33 200 253 648
20 34 201 254 649
21 35 202 255 650
22 36 203 256 651
23 37 204 225 652
24 38 205 226 653
25 39 206 227 654
26 40 207 228 655
27 41 208 229 656
28 42 209 230 657
29 43 210 231 658
30 44 211 232 659
31 45 212 233 660
32 46 213 234 661
1 47 214 235 662
2 48 215 236 663
3 49 216 237 664
4 50 217 238 665
5 51 218 239 666
6 52 219 240 667
7 53 220 241 668
8 54 221 242 669
9 55 222 243 670
10 56 223 244 671
11 57 224 245 672
12 237 307 441 673
13 238 308 442 674
14 239 309 443 675
15 240 310 444 676
16 241 311 445 677
17 242 312 446 678
18 243 313 447 679
19 244 314 448 680
20 245 315 417 681
21 246 316 418 682
22 247 317 419 683
23 248 318 420 684
24 249 319 421 685
25 250 320 422 686
26 251 289 423 687
27 252 290 424 688
28 253 291 425 689
29 254 292 426 690
30 255 293 427 691
31 256 294 428 692
32 225 295 429 693
1 226 296 430 694
2 227 297 431 695
3 228 298 432 696
4 229 299 433 697
5 230 300 434 698
6 231 301 435 699
7 232 302 436 700
8 233 303 437 701
9 234 304 438 702
10 235 305 439 703
11 236 306 440 704
64 112 367 705
33 113 368 706
34 114 369 707
35 115 370 708
36 116 371 709
37 117 372 710
38 118 373 711
39 119 374 712
40 120 375 713
41 121 376 714
42 122 377 715
43 123 378 716
44 124 379 717
45 125 380 718
46 126 381 719
47 127 382 720
48 128 383 721
49 97 384 722
50 98 353 723
51 99 354 724
52 100 355 725
53 101 356 726
54 102 357 727
55 103 358 728
56 104 359 729
57 105 360 730
58 106 361 731
59 107 362 732
60 108 363 733
61 109 364 734
62 110 365 735
63 111 366 736
20 35 263 447 737
21 36 264 448 738
22 37 265 417 739
23 38 266 418 740
24 39 267 419 741
25 40 268 420 742
26 41 269 421 743
27 42 270 422 744
28 43 271 423 745
29 44 272 424 746
30 45 273 425 747
31 46 274 426 748
32 47 275 427 749
1 48 276 428 750
2 49 277 429 751
3 50 278 430 752
4 51 279 431 753
5 52 280 432 754
6 53 281 433 755
7 54 282 434 756
8 55 283 435 757
9 56 284 436 758
10 57 285 437 759
11 58 286 438 760
12 59 287 439 761
13 60 288 440 762
14 61 257 441 763
15 62 258 442 764
16 63 259 443 765
17 64 260 444 766
18 33 261 445 767
19 34 262 446 768
52 210 356 425 769
53 211 357 426 770
54 212 358 427 771
55 213 359 428 772
56 214 360 429 773
57 215 361 430 774
58 216 362 431 775
59 217 363 432 776
60 218 364 433 777
61 219 365 434 778
62 220 366 435 779
63 221 367 436 780
64 222 368 437 781
33 223 369 438 782
34 224 370 439 783
35 193 371 440 784
36 194 372 441 785
37 195 373 442 786
38 196 374 443 787
39 197 375 444 788
40 198 376 445 789
41 199 377 446 790
42 200 378 447 791
43 201 379 448 792
44 202 380 417 793
45 203 381 418 794
46 204 382 419 795
47 205 383 420 796
48 206 384 421 797
49 207 353 422 798
50 208 354 423 799
51 209 355 424 800
20 336 374 801
21 337 375 802
22 338 376 803
23 339 377 804
24 340 378 805
25 341 379 806
26 342 380 807
27 343 381 808
28 344 382 809
29 345 383 810
30 346 384 811
31 347 353 812
32 348 354 813
1 349 355 814
2 350 356 815
3 351 357 816
4 352 358 817
5 321 359 818
6 322 360 819
7 323 361 820
8 324 362 821
9 325 363 822
10 326 364 823
11 327 365 824
12 328 366 825
13 329 367 826
14 330 368 827
15 331 369 828
16 332 370 829
17 333 371 830
18 334 372 831
19 335 373 832
44 303 361 403 833
45 304 362 404 834
46 305 363 405 835
47 306 364 406 836
48 307 365 407 837
49 308 366 408 838
50 309 367 409 839
51 310 368 410 840
52 311 369 411 841
53 312 370 412 842
54 313 371 413 843
55 314 372 414 844
56 315 373 415 845
57 316 374 416 846
58 317 375 385 847
59 318 376 386 848
60 319 377 387 849
61 320 378 388 850
62 289 379 389 851
63 290 380 390 852
64 291 381 391 853
33 292 382 392 854
34 293 383 393 855
35 294 384 394 856
36 295 353 395 857
37 296 354 396 858
38 297 355 397 859
39 298 356 398 860
40 299 357 399 861
41 300 358 400 862
42 301 359 401 863
43 302 360 402 864
63 189 371 385 865
64 190 372 386 866
33 191 373 387 867
34 192 374 388 868
35 161 375 389 869
36 162 376 390 870
37 163 377 391 871
38 164 378 392 872
39 165 379 393 873
40 166 380 394 874
41 167 381 395 875
42 168 382 396 876
43 169 383 397 877
44 170 384 398 878
45 171 353 399 879
46 172 354 400 880
47 173 355 401 881
48 174 356 402 882
49 175 357 403 883
50 176 358 404 884
51 177 359 405 885
52 178 360 406 886
53 179 361 407 887
54 180 362 408 888
55 181 363 409 889
56 182 364 410 890
57 183 365 411 891
58 184 366 412 892
59 185 367 413 893
60 186 368 414 894
61 187 369 415 895
62 188 370 416 896
