1280 640
10 118 141 219 446 590 641 705
11 119 142 220 447 591 642 706
12 120 143 221 448 592 643 707
13 121 144 222 385 593 644 708
14 122 145 223 386 594 645 709
15 123 146 224 387 595 646 710
16 124 147 225 388 596 647 711
17 125 148 226 389 597 648 712
18 126 149 227 390 598 649 713
19 127 150 228 391 599 650 714
20 128 151 229 392 600 651 715
21 65 152 230 393 601 652 716
22 66 153 231 394 602 653 717
23 67 154 232 395 603 654 718
24 68 155 233 396 604 655 719
25 69 156 234 397 605 656 720
26 70 157 235 398 606 657 721
27 71 158 236 399 607 658 722
28 72 159 237 400 608 659 723
29 73 160 238 401 609 660 724
30 74 161 239 402 610 661 725
31 75 162 240 403 611 662 726
32 76 163 241 404 612 663 727
33 77 164 242 405 613 664 728
34 78 165 243 406 614 665 729
35 79 166 244 407 615 666 730
36 80 167 245 408 616 667 731
37 81 168 246 409 617 668 732
38 82 169 247 410 618 669 733
39 83 170 248 411 619 670 734
40 84 171 249 412 620 671 735
41 85 172 250 413 621 672 736
42 86 173 251 414 622 673 737
43 87 174 252 415 623 674 738
44 88 175 253 416 624 675 739
45 89 176 254 417 625 676 740
46 90 177 255 418 626 677 741
47 91 178 256 419 627 678 742
48 92 179 193 420 628 679 743
49 93 180 194 421 629 680 744
50 94 181 195 422 630 681 745
51 95 182 196 423 631 682 746
52 96 183 197 424 632 683 747
53 97 184 198 425 633 684 748
54 98 185 199 426 634 685 749
55 99 186 200 427 635 686 750
56 100 187 201 428 636 687 751
57 101 188 202 429 637 688 752
58 102 189 203 430 638 689 753
59 103 190 204 431 639 690 754
60 104 191 205 432 640 691 755
61 105 192 206 433 577 692 756
62 106 129 207 434 578 693 757
63 107 130 208 435 579 694 758
64 108 131 209 436 580 695 759
1 109 132 210 437 581 696 760
2 110 133 211 438 582 697 761
3 111 134 212 439 583 698 762
4 112 135 213 440 584 699 763
5 113 136 214 441 585 700 764
6 114 137 215 442 586 701 765
7 115 138 216 443 587 702 766
8 116 139 217 444 588 703 767
9 117 140 218 445 589 704 768
40 231 318 382 419 477 545 637 705 769
41 232 319 383 420 478 546 638 706 770
42 233 320 384 421 479 547 639 707 771
43 234 257 321 422 480 548 640 708 772
44 235 258 322 423 481 549 577 709 773
45 236 259 323 424 482 550 578 710 774
46 237 260 324 425 483 551 579 711 775
47 238 261 325 426 484 552 580 712 776
48 239 262 326 427 485 553 581 713 777
49 240 263 327 428 486 554 582 714 778
50 241 264 328 429 487 555 583 715 779
51 242 265 329 430 488 556 584 716 780
52 243 266 330 431 489 557 585 717 781
53 244 267 331 432 490 558 586 718 782
54 245 268 332 433 491 559 587 719 783
55 246 269 333 434 492 560 588 720 784
56 247 270 334 435 493 561 589 721 785
57 248 271 335 436 494 562 590 722 786
58 249 272 336 437 495 563 591 723 787
59 250 273 337 438 496 564 592 724 788
60 251 274 338 439 497 565 593 725 789
61 252 275 339 440 498 566 594 726 790
62 253 276 340 441 499 567 595 727 791
63 254 277 341 442 500 568 596 728 792
64 255 278 342 443 501 569 597 729 793
1 256 279 343 444 502 570 598 730 794
2 193 280 344 445 503 571 599 731 795
3 194 281 345 446 504 572 600 732 796
4 195 282 346 447 505 573 601 733 797
5 196 283 347 448 506 574 602 734 798
6 197 284 348 385 507 575 603 735 799
7 198 285 349 386 508 576 604 736 800
8 199 286 350 387 509 513 605 737 801
9 200 287 351 388 510 514 606 738 802
10 201 288 352 389 511 515 607 739 803
11 202 289 353 390 512 516 608 740 804
12 203 290 354 391 449 517 609 741 805
13 204 291 355 392 450 518 610 742 806
14 205 292 356 393 451 519 611 743 807
15 206 293 357 394 452 520 612 744 808
16 207 294 358 395 453 521 613 745 809
17 208 295 359 396 454 522 614 746 810
18 209 296 360 397 455 523 615 747 811
19 210 297 361 398 456 524 616 748 812
20 211 298 362 399 457 525 617 749 813
21 212 299 363 400 458 526 618 750 814
22 213 300 364 401 459 527 619 751 815
23 214 301 365 402 460 528 620 752 816
24 215 302 366 403 461 529 621 753 817
25 216 303 367 404 462 530 622 754 818
26 217 304 368 405 463 531 623 755 819
27 218 305 369 406 464 532 624 756 820
28 219 306 370 407 465 533 625 757 821
29 220 307 371 408 466 534 626 758 822
30 221 308 372 409 467 535 627 759 823
31 222 309 373 410 468 536 628 760 824
32 223 310 374 411 469 537 629 761 825
33 224 311 375 412 470 538 630 762 826
34 225 312 376 413 471 539 631 763 827
35 226 313 377 414 472 540 632 764 828
36 227 314 378 415 473 541 633 765 829
37 228 315 379 416 474 542 634 766 830
38 229 316 380 417 475 543 635 767 831
39 230 317 381 418 476 544 636 768 832
18 115 237 309 561 642 769 833
19 116 238 310 562 643 770 834
20 117 239 311 563 644 771 835
21 118 240 312 564 645 772 836
22 119 241 313 565 646 773 837
23 120 242 314 566 647 774 838
24 121 243 315 567 648 775 839
25 122 244 316 568 649 776 840
26 123 245 317 569 650 777 841
27 124 246 318 570 651 778 842
28 125 247 319 571 652 779 843
29 126 248 320 572 653 780 844
30 127 249 257 573 654 781 845
31 128 250 258 574 655 782 846
32 65 251 259 575 656 783 847
33 66 252 260 576 657 784 848
34 67 253 261 513 658 785 849
35 68 254 262 514 659 786 850
36 69 255 263 515 660 787 851
37 70 256 264 516 661 788 852
38 71 193 265 517 662 789 853
39 72 194 266 518 663 790 854
40 73 195 267 519 664 791 855
41 74 196 268 520 665 792 856
42 75 197 269 521 666 793 857
43 76 198 270 522 667 794 858
44 77 199 271 523 668 795 859
45 78 200 272 524 669 796 860
46 79 201 273 525 670 797 861
47 80 202 274 526 671 798 862
48 81 203 275 527 672 799 863
49 82 204 276 528 673 800 864
50 83 205 277 529 674 801 865
51 84 206 278 530 675 802 866
52 85 207 279 531 676 803 867
53 86 208 280 532 677 804 868
54 87 209 281 533 678 805 869
55 88 210 282 534 679 806 870
56 89 211 283 535 680 807 871
57 90 212 284 536 681 808 872
58 91 213 285 537 682 809 873
59 92 214 286 538 683 810 874
60 93 215 287 539 684 811 875
61 94 216 288 540 685 812 876
62 95 217 289 541 686 813 877
63 96 218 290 542 687 814 878
64 97 219 291 543 688 815 879
1 98 220 292 544 689 816 880
2 99 221 293 545 690 817 881
3 100 222 294 546 691 818 882
4 101 223 295 547 692 819 883
5 102 224 296 548 693 820 884
6 103 225 297 549 694 821 885
7 104 226 298 550 695 822 886
8 105 227 299 551 696 823 887
9 106 228 300 552 697 824 888
10 107 229 301 553 698 825 889
11 108 230 302 554 699 826 890
12 109 231 303 555 700 827 891
13 110 232 304 556 701 828 892
14 111 233 305 557 702 829 893
15 112 234 306 558 703 830 894
16 113 235 307 559 704 831 895
17 114 236 308 560 641 832 896
73 187 287 361 402 503 531 577 641 833
74 188 288 362 403 504 532 578 642 834
75 189 289 363 404 505 533 579 643 835
76 190 290 364 405 506 534 580 644 836
77 191 291 365 406 507 535 581 645 837
78 192 292 366 407 508 536 582 646 838
79 129 293 367 408 509 537 583 647 839
80 130 294 368 409 510 538 584 648 840
81 131 295 369 410 511 539 585 649 841
82 132 296 370 411 512 540 586 650 842
83 133 297 371 412 449 541 587 651 843
84 134 298 372 413 450 542 588 652 844
85 135 299 373 414 451 543 589 653 845
86 136 300 374 415 452 544 590 654 846
87 137 301 375 416 453 545 591 655 847
88 138 302 376 417 454 546 592 656 848
89 139 303 377 418 455 547 593 657 849
90 140 304 378 419 456 548 594 658 850
91 141 305 379 420 457 549 595 659 851
92 142 306 380 421 458 550 596 660 852
93 143 307 381 422 459 551 597 661 853
94 144 308 382 423 460 552 598 662 854
95 145 309 383 424 461 553 599 663 855
96 146 310 384 425 462 554 600 664 856
97 147 311 321 426 463 555 601 665 857
98 148 312 322 427 464 556 602 666 858
99 149 313 323 428 465 557 603 667 859
100 150 314 324 429 466 558 604 668 860
101 151 315 325 430 467 559 605 669 861
102 152 316 326 431 468 560 606 670 862
103 153 317 327 432 469 561 607 671 863
104 154 318 328 433 470 562 608 672 864
105 155 319 329 434 471 563 609 673 865
106 156 320 330 435 472 564 610 674 866
107 157 257 331 436 473 565 611 675 867
108 158 258 332 437 474 566 612 676 868
109 159 259 333 438 475 567 613 677 869
110 160 260 334 439 476 568 614 678 870
111 161 261 335 440 477 569 615 679 871
112 162 262 336 441 478 570 616 680 872
113 163 263 337 442 479 571 617 681 873
114 164 264 338 443 480 572 618 682 874
115 165 265 339 444 481 573 619 683 875
116 166 266 340 445 482 574 620 684 876
117 167 267 341 446 483 575 621 685 877
118 168 268 342 447 484 576 622 686 878
119 169 269 343 448 485 513 623 687 879
120 170 270 344 385 486 514 624 688 880
121 171 271 345 386 487 515 625 689 881
122 172 272 346 387 488 516 626 690 882
123 173 273 347 388 489 517 627 691 883
124 174 274 348 389 490 518 628 692 884
125 175 275 349 390 491 519 629 693 885
126 176 276 350 391 492 520 630 694 886
127 177 277 351 392 493 521 631 695 887
128 178 278 352 393 494 522 632 696 888
65 179 279 353 394 495 523 633 697 889
66 180 280 354 395 496 524 634 698 890
67 181 281 355 396 497 525 635 699 891
68 182 282 356 397 498 526 636 700 892
69 183 283 357 398 499 527 637 701 893
70 184 284 358 399 500 528 638 702 894
71 185 285 359 400 501 529 639 703 895
72 186 286 360 401 502 530 640 704 896
52 87 712 897
53 88 713 898
54 89 714 899
55 90 715 900
56 91 716 901
57 92 717 902
58 93 718 903
59 94 719 904
60 95 720 905
61 96 721 906
62 97 722 907
63 98 723 908
64 99 724 909
1 100 725 910
2 101 726 911
3 102 727 912
4 103 728 913
5 104 729 914
6 105 730 915
7 106 731 916
8 107 732 917
9 108 733 918
10 109 734 919
11 110 735 920
12 111 736 921
13 112 737 922
14 113 738 923
15 114 739 924
16 115 740 925
17 116 741 926
18 117 742 927
19 118 743 928
20 119 744 929
21 120 745 930
22 121 746 931
23 122 747 932
24 123 748 933
25 124 749 934
26 125 750 935
27 126 751 936
28 127 752 937
29 128 753 938
30 65 754 939
31 66 755 940
32 67 756 941
33 68 757 942
34 69 758 943
35 70 759 944
36 71 760 945
37 72 761 946
38 73 762 947
39 74 763 948
40 75 764 949
41 76 765 950
42 77 766 951
43 78 767 952
44 79 768 953
45 80 705 954
46 81 706 955
47 82 707 956
48 83 708 957
49 84 709 958
50 85 710 959
51 86 711 960
40 106 323 480 744 961
41 107 324 481 745 962
42 108 325 482 746 963
43 109 326 483 747 964
44 110 327 484 748 965
45 111 328 485 749 966
46 112 329 486 750 967
47 113 330 487 751 968
48 114 331 488 752 969
49 115 332 489 753 970
50 116 333 490 754 971
51 117 334 491 755 972
52 118 335 492 756 973
53 119 336 493 757 974
54 120 337 494 758 975
55 121 338 495 759 976
56 122 339 496 760 977
57 123 340 497 761 978
58 124 341 498 762 979
59 125 342 499 763 980
60 126 343 500 764 981
61 127 344 501 765 982
62 128 345 502 766 983
63 65 346 503 767 984
64 66 347 504 768 985
1 67 348 505 705 986
2 68 349 506 706 987
3 69 350 507 707 988
4 70 351 508 708 989
5 71 352 509 709 990
6 72 353 510 710 991
7 73 354 511 711 992
8 74 355 512 712 993
9 75 356 449 713 994
10 76 357 450 714 995
11 77 358 451 715 996
12 78 359 452 716 997
13 79 360 453 717 998
14 80 361 454 718 999
15 81 362 455 719 1000
16 82 363 456 720 1001
17 83 364 457 721 1002
18 84 365 458 722 1003
19 85 366 459 723 1004
20 86 367 460 724 1005
21 87 368 461 725 1006
22 88 369 462 726 1007
23 89 370 463 727 1008
24 90 371 464 728 1009
25 91 372 465 729 1010
26 92 373 466 730 1011
27 93 374 467 731 1012
28 94 375 468 732 1013
29 95 376 469 733 1014
30 96 377 470 734 1015
31 97 378 471 735 1016
32 98 379 472 736 1017
33 99 380 473 737 1018
34 100 381 474 738 1019
35 101 382 475 739 1020
36 102 383 476 740 1021
37 103 384 477 741 1022
38 104 321 478 742 1023
39 105 322 479 743 1024
28 357 494 605 735 1025
29 358 495 606 736 1026
30 359 496 607 737 1027
31 360 497 608 738 1028
32 361 498 609 739 1029
33 362 499 610 740 1030
34 363 500 611 741 1031
35 364 501 612 742 1032
36 365 502 613 743 1033
37 366 503 614 744 1034
38 367 504 615 745 1035
39 368 505 616 746 1036
40 369 506 617 747 1037
41 370 507 618 748 1038
42 371 508 619 749 1039
43 372 509 620 750 1040
44 373 510 621 751 1041
45 374 511 622 752 1042
46 375 512 623 753 1043
47 376 449 624 754 1044
48 377 450 625 755 1045
49 378 451 626 756 1046
50 379 452 627 757 1047
51 380 453 628 758 1048
52 381 454 629 759 1049
53 382 455 630 760 1050
54 383 456 631 761 1051
55 384 457 632 762 1052
56 321 458 633 763 1053
57 322 459 634 764 1054
58 323 460 635 765 1055
59 324 461 636 766 1056
60 325 462 637 767 1057
61 326 463 638 768 1058
62 327 464 639 705 1059
63 328 465 640 706 1060
64 329 466 577 707 1061
1 330 467 578 708 1062
2 331 468 579 709 1063
3 332 469 580 710 1064
4 333 470 581 711 1065
5 334 471 582 712 1066
6 335 472 583 713 1067
7 336 473 584 714 1068
8 337 474 585 715 1069
9 338 475 586 716 1070
10 339 476 587 717 1071
11 340 477 588 718 1072
12 341 478 589 719 1073
13 342 479 590 720 1074
14 343 480 591 721 1075
15 344 481 592 722 1076
16 345 482 593 723 1077
17 346 483 594 724 1078
18 347 484 595 725 1079
19 348 485 596 726 1080
20 349 486 597 727 1081
21 350 487 598 728 1082
22 351 488 599 729 1083
23 352 489 600 730 1084
24 353 490 601 731 1085
25 354 491 602 732 1086
26 355 492 603 733 1087
27 356 493 604 734 1088
66 340 461 708 885 1089
67 341 462 709 886 1090
68 342 463 710 887 1091
69 343 464 711 888 1092
70 344 465 712 889 1093
71 345 466 713 890 1094
72 346 467 714 891 1095
73 347 468 715 892 1096
74 348 469 716 893 1097
75 349 470 717 894 1098
76 350 471 718 895 1099
77 351 472 719 896 1100
78 352 473 720 833 1101
79 353 474 721 834 1102
80 354 475 722 835 1103
81 355 476 723 836 1104
82 356 477 724 837 1105
83 357 478 725 838 1106
84 358 479 726 839 1107
85 359 480 727 840 1108
86 360 481 728 841 1109
87 361 482 729 842 1110
88 362 483 730 843 1111
89 363 484 731 844 1112
90 364 485 732 845 1113
91 365 486 733 846 1114
92 366 487 734 847 1115
93 367 488 735 848 1116
94 368 489 736 849 1117
95 369 490 737 850 1118
96 370 491 738 851 1119
97 371 492 739 852 1120
98 372 493 740 853 1121
99 373 494 741 854 1122
100 374 495 742 855 1123
101 375 496 743 856 1124
102 376 497 744 857 1125
103 377 498 745 858 1126
104 378 499 746 859 1127
105 379 500 747 860 1128
106 380 501 748 861 1129
107 381 502 749 862 1130
108 382 503 750 863 1131
109 383 504 751 864 1132
110 384 505 752 865 1133
111 321 506 753 866 1134
112 322 507 754 867 1135
113 323 508 755 868 1136
114 324 509 756 869 1137
115 325 510 757 870 1138
116 326 511 758 871 1139
117 327 512 759 872 1140
118 328 449 760 873 1141
119 329 450 761 874 1142
120 330 451 762 875 1143
121 331 452 763 876 1144
122 332 453 764 877 1145
123 333 454 765 878 1146
124 334 455 766 879 1147
125 335 456 767 880 1148
126 336 457 768 881 1149
127 337 458 705 882 1150
128 338 459 706 883 1151
65 339 460 707 884 1152
15 95 807 1153
16 96 808 1154
17 97 809 1155
18 98 810 1156
19 99 811 1157
20 100 812 1158
21 101 813 1159
22 102 814 1160
23 103 815 1161
24 104 816 1162
25 105 817 1163
26 106 818 1164
27 107 819 1165
28 108 820 1166
29 109 821 1167
30 110 822 1168
31 111 823 1169
32 112 824 1170
33 113 825 1171
34 114 826 1172
35 115 827 1173
36 116 828 1174
37 117 829 1175
38 118 830 1176
39 119 831 1177
40 120 832 1178
41 121 769 1179
42 122 770 1180
43 123 771 1181
44 124 772 1182
45 125 773 1183
46 126 774 1184
47 127 775 1185
48 128 776 1186
49 65 777 1187
50 66 778 1188
51 67 779 1189
52 68 780 1190
53 69 781 1191
54 70 782 1192
55 71 783 1193
56 72 784 1194
57 73 785 1195
58 74 786 1196
59 75 787 1197
60 76 788 1198
61 77 789 1199
62 78 790 1200
63 79 791 1201
64 80 792 1202
1 81 793 1203
2 82 794 1204
3 83 795 1205
4 84 796 1206
5 85 797 1207
6 86 798 1208
7 87 799 1209
8 88 800 1210
9 89 801 1211
10 90 802 1212
11 91 803 1213
12 92 804 1214
13 93 805 1215
14 94 806 1216
76 526 702 760 1217
77 527 703 761 1218
78 528 704 762 1219
79 529 641 763 1220
80 530 642 764 1221
81 531 643 765 1222
82 532 644 766 1223
83 533 645 767 1224
84 534 646 768 1225
85 535 647 705 1226
86 536 648 706 1227
87 537 649 707 1228
88 538 650 708 1229
89 539 651 709 1230
90 540 652 710 1231
91 541 653 711 1232
92 542 654 712 1233
93 543 655 713 1234
94 544 656 714 1235
95 545 657 715 1236
96 546 658 716 1237
97 547 659 717 1238
98 548 660 718 1239
99 549 661 719 1240
100 550 662 720 1241
101 551 663 721 1242
102 552 664 722 1243
103 553 665 723 1244
104 554 666 724 1245
105 555 667 725 1246
106 556 668 726 1247
107 557 669 727 1248
108 558 670 728 1249
109 559 671 729 1250
110 560 672 730 1251
111 561 673 731 1252
112 562 674 732 1253
113 563 675 733 1254
114 564 676 734 1255
115 565 677 735 1256
116 566 678 736 1257
117 567 679 737 1258
118 568 680 738 1259
119 569 681 739 1260
120 570 682 740 1261
121 571 683 741 1262
122 572 684 742 1263
123 573 685 743 1264
124 574 686 744 1265
125 575 687 745 1266
126 576 688 746 1267
127 513 689 747 1268
128 514 690 748 1269
65 515 691 749 1270
66 516 692 750 1271
67 517 693 751 1272
68 518 694 752 1273
69 519 695 753 1274
70 520 696 754 1275
71 521 697 755 1276
72 522 698 756 1277
73 523 699 757 1278
74 524 700 758 1279
75 525 701 759 1280
