96 48
3 16 23 64 90 96
12 19 38 57 64 70
4 20 30 52 70 95
1 31 42 55 66 87
9 28 41 69 77 87
22 29 43 78 84 87
6 14 34 49 92 93
24 32 41 55 82 83
5 24 26 58 66 73
12 33 44 61 79 91
3 19 32 63 67 72
22 24 25 62 75 92
7 22 39 60 93 94
26 28 48 84 92 94
7 37 40 70 85 96
15 17 46 71 75 79
6 43 46 54 64 69
11 14 44 63 81 82
11 35 36 52 54 68
36 39 45 72 73 95
1 20 21 50 54 71
6 9 17 51 88 89
30 33 47 50 74 78
16 29 32 68 75 76
17 18 36 50 84 91
16 27 42 86 89 95
11 13 45 53 88 90
8 10 21 55 57 81
26 27 45 65 68 85
10 31 46 58 59 94
2 27 38 49 56 79
14 15 35 57 62 83
2 3 10 61 71 80
12 18 21 51 60 67
18 34 41 53 56 80
5 29 47 60 83 85
4 19 43 58 76 96
2 13 23 59 74 86
20 23 38 65 77 91
8 40 48 53 59 62
13 35 47 51 63 76
5 9 33 49 52 82
34 39 40 77 78 90
25 42 48 69 72 88
15 31 44 56 65 89
28 30 37 61 86 93
1 8 37 67 73 74
4 7 25 66 80 81
