64 16
1 2 3 4 5 6 7 8 9 10 11 12 13 14 15 16 17 18 19 20 21 22 23 24 25 26 27 28 29 30 31 32 33 34 35 36 37 38 39 40 41 42 43 44 45 46 47 48 49 50 51 52 53 54 55 56 57 58 59 60 61 62 63 64
33 34 35 36 37 38 39 40 41 42 43 44 45 46 47 48 49 50 51 52 53 54 55 56 57 58 59 60 61 62 63 64
17 18 19 20 21 22 23 24 25 26 27 28 29 30 31 32 49 50 51 52 53 54 55 56 57 58 59 60 61 62 63 64
49 50 51 52 53 54 55 56 57 58 59 60 61 62 63 64
9 10 11 12 13 14 15 16 25 26 27 28 29 30 31 32 41 42 43 44 45 46 47 48 57 58 59 60 61 62 63 64
41 42 43 44 45 46 47 48 57 58 59 60 61 62 63 64
25 26 27 28 29 30 31 32 57 58 59 60 61 62 63 64
5 6 7 8 13 14 15 16 21 22 23 24 29 30 31 32 37 38 39 40 45 46 47 48 53 54 55 56 61 62 63 64
37 38 39 40 45 46 47 48 53 54 55 56 61 62 63 64
21 22 23 24 29 30 31 32 53 54 55 56 61 62 63 64
13 14 15 16 29 30 31 32 45 46 47 48 61 62 63 64
3 4 7 8 11 12 15 16 19 20 23 24 27 28 31 32 35 36 39 40 43 44 47 48 51 52 55 56 59 60 63 64
35 36 39 40 43 44 47 48 51 52 55 56 59 60 63 64
19 20 23 24 27 28 31 32 51 52 55 56 59 60 63 64
2 4 6 8 10 12 14 16 18 20 22 24 26 28 30 32 34 36 38 40 42 44 46 48 50 52 54 56 58 60 62 64
34 36 38 40 42 44 46 48 50 52 54 56 58 60 62 64
